SDVRP instances/custom_instances/p02_21_split0.vrp
NAME:p02_21_split
BEST_KNOWN: 0
COMMENT: 0
DIMENSION: 378
CAPACITY: 140
EDGE_WEIGHT_FORMAT: FUNCTION
EDGE_WEIGHT_TYPE: EXACT_2D
NODE_COORD_SECTION
1 0.00000 0.00000
2 -40 -35
3 -40 -35
4 15 -36
5 15 -36
6 15 -36
7 15 -36
8 15 -36
9 15 -36
10 15 -36
11 -39 -10
12 -39 -10
13 17 -40
14 17 -40
15 17 -40
16 -32 -16
17 -32 -16
18 -32 -16
19 8 14
20 8 14
21 8 14
22 8 14
23 8 14
24 8 14
25 8 14
26 8 14
27 -38 -42
28 -38 -42
29 -38 -42
30 -38 -42
31 -38 -42
32 -38 -42
33 43 26
34 43 26
35 43 26
36 43 26
37 43 26
38 -29 -34
39 -29 -34
40 -25 30
41 -25 30
42 -25 30
43 -25 30
44 -25 30
45 -19 11
46 -19 11
47 -19 11
48 -42 -44
49 -42 -44
50 -42 -44
51 -42 -44
52 -42 -44
53 -42 -44
54 -21 28
55 -21 28
56 -21 28
57 -21 28
58 -21 28
59 -21 28
60 -21 28
61 -12 40
62 -12 40
63 -12 40
64 -12 40
65 -32 -13
66 -32 -13
67 -32 -13
68 -32 -13
69 -32 -13
70 -32 -13
71 -32 -13
72 -14 47
73 -14 47
74 -14 47
75 -14 47
76 -14 47
77 -18 11
78 -18 11
79 -18 11
80 -18 11
81 -18 11
82 -18 11
83 -18 11
84 -18 11
85 11 -8
86 11 -8
87 11 -8
88 22 -38
89 22 -38
90 22 -38
91 22 -38
92 49 -11
93 49 -11
94 23 -2
95 23 -2
96 23 -2
97 -5 -2
98 -5 -2
99 -5 -2
100 -5 -2
101 -5 -2
102 -25 1
103 -25 1
104 -25 1
105 -25 1
106 -25 1
107 -25 1
108 14 -6
109 14 -6
110 14 -6
111 14 -6
112 14 -6
113 14 -6
114 25 -16
115 25 -16
116 25 -16
117 25 -16
118 25 -16
119 25 -16
120 3 -34
121 3 -34
122 3 -34
123 48 -46
124 48 -46
125 48 -46
126 48 -46
127 48 -46
128 48 -46
129 48 -46
130 48 -46
131 -44 45
132 -44 45
133 -44 45
134 -44 45
135 -44 45
136 -44 45
137 -44 45
138 15 -19
139 15 -19
140 15 -19
141 15 -19
142 15 -19
143 15 -19
144 15 -19
145 15 -19
146 19 -39
147 19 -39
148 19 -39
149 19 -39
150 19 -39
151 19 -39
152 19 -39
153 -43 43
154 -43 43
155 -43 43
156 -43 43
157 -43 43
158 -43 43
159 -43 43
160 -43 43
161 -43 43
162 -40 18
163 -40 18
164 -40 18
165 -40 18
166 -40 18
167 -16 -42
168 -16 -42
169 -16 -42
170 -16 -42
171 -16 -42
172 -16 -42
173 -27 6
174 -27 6
175 21 24
176 21 24
177 21 24
178 21 24
179 21 24
180 -11 -45
181 -11 -45
182 -11 -45
183 -11 -45
184 -11 -45
185 -2 -3
186 -2 -3
187 -2 -3
188 -2 -3
189 -2 -3
190 -2 -3
191 -2 -3
192 7 36
193 7 36
194 7 36
195 -22 26
196 -22 26
197 -22 26
198 -22 26
199 -22 26
200 -29 -6
201 -29 -6
202 -29 -6
203 -29 -6
204 -29 -6
205 -29 -6
206 -29 -6
207 -29 -6
208 -29 -6
209 16 -28
210 16 -28
211 16 -28
212 16 -28
213 16 -28
214 16 -28
215 30 37
216 30 37
217 30 37
218 -23 -37
219 -23 -37
220 -23 -37
221 -23 -37
222 -23 -37
223 -47 41
224 -47 41
225 -47 41
226 -47 41
227 -47 41
228 40 46
229 40 46
230 40 46
231 40 46
232 40 46
233 40 46
234 40 46
235 40 46
236 16 -6
237 16 -6
238 16 -6
239 16 -6
240 16 -6
241 16 -6
242 16 -6
243 16 -6
244 27 -6
245 27 -6
246 27 -6
247 27 -6
248 27 -6
249 50 -22
250 50 -22
251 11 -7
252 11 -7
253 11 -7
254 11 -7
255 11 -7
256 11 -7
257 11 -7
258 21 15
259 21 15
260 21 15
261 21 15
262 21 15
263 21 15
264 21 15
265 21 15
266 21 15
267 -32 -49
268 -32 -49
269 -32 -49
270 -32 -49
271 -1 7
272 -1 7
273 -7 -44
274 -7 -44
275 38 -30
276 38 -30
277 -13 -3
278 -13 -3
279 -13 -3
280 -13 -3
281 -13 -3
282 -13 -3
283 -13 -3
284 -13 -39
285 -13 -39
286 -13 -39
287 -32 7
288 -32 7
289 -32 7
290 -5 24
291 -5 24
292 -5 24
293 -5 24
294 -5 24
295 -24 -41
296 -24 -41
297 -24 -41
298 -24 -41
299 36 12
300 36 12
301 36 12
302 36 12
303 36 12
304 36 12
305 36 12
306 36 12
307 -24 44
308 -24 44
309 -24 44
310 -24 44
311 -24 44
312 -24 44
313 -24 44
314 -24 44
315 -27 -37
316 -16 50
317 -16 50
318 -16 50
319 -16 50
320 -16 50
321 -16 50
322 -16 50
323 -3 44
324 -3 44
325 27 -44
326 27 -44
327 27 -44
328 27 -44
329 -46 -41
330 -46 -41
331 -46 -41
332 -46 -41
333 -46 -41
334 -46 -41
335 25 45
336 25 45
337 25 45
338 25 45
339 25 45
340 41 1
341 41 1
342 41 1
343 -28 -30
344 -28 -30
345 -28 -30
346 -28 -30
347 27 2
348 27 2
349 27 2
350 27 2
351 27 2
352 -14 -19
353 -14 -19
354 -12 -43
355 -12 -43
356 -12 -43
357 -12 -43
358 -12 -43
359 -12 -43
360 -12 -43
361 -23 -46
362 -23 -46
363 -23 -46
364 -23 -46
365 -23 -46
366 -23 -46
367 -24 5
368 -24 5
369 -24 5
370 -24 5
371 -24 5
372 -24 5
373 -24 5
374 -24 5
375 -29 -49
376 -29 -49
377 -29 -49
378 -29 -49
DEMAND_SECTION
1 0
2 28
3 28
4 28
5 14
6 7
7 1
8 1
9 1
10 1
11 28
12 14
13 28
14 7
15 1
16 28
17 28
18 1
19 28
20 14
21 7
22 1
23 1
24 1
25 1
26 1
27 28
28 28
29 1
30 1
31 1
32 1
33 28
34 28
35 1
36 1
37 1
38 28
39 28
40 28
41 1
42 1
43 1
44 1
45 28
46 14
47 1
48 14
49 7
50 1
51 1
52 1
53 1
54 28
55 28
56 1
57 1
58 1
59 1
60 1
61 28
62 14
63 1
64 1
65 28
66 14
67 1
68 1
69 1
70 1
71 1
72 28
73 28
74 1
75 1
76 1
77 28
78 28
79 7
80 1
81 1
82 1
83 1
84 1
85 14
86 7
87 1
88 28
89 28
90 1
91 1
92 28
93 28
94 28
95 14
96 7
97 14
98 1
99 1
100 1
101 1
102 28
103 1
104 1
105 1
106 1
107 1
108 28
109 1
110 1
111 1
112 1
113 1
114 14
115 1
116 1
117 1
118 1
119 1
120 28
121 28
122 1
123 28
124 28
125 7
126 1
127 1
128 1
129 1
130 1
131 28
132 28
133 7
134 1
135 1
136 1
137 1
138 28
139 28
140 7
141 1
142 1
143 1
144 1
145 1
146 14
147 1
148 1
149 1
150 1
151 1
152 1
153 28
154 28
155 7
156 1
157 1
158 1
159 1
160 1
161 1
162 28
163 28
164 1
165 1
166 1
167 28
168 28
169 7
170 1
171 1
172 1
173 28
174 7
175 14
176 1
177 1
178 1
179 1
180 28
181 7
182 1
183 1
184 1
185 28
186 28
187 7
188 1
189 1
190 1
191 1
192 28
193 14
194 7
195 28
196 28
197 7
198 1
199 1
200 28
201 14
202 7
203 1
204 1
205 1
206 1
207 1
208 1
209 28
210 14
211 7
212 1
213 1
214 1
215 28
216 28
217 14
218 14
219 1
220 1
221 1
222 1
223 28
224 28
225 7
226 1
227 1
228 28
229 14
230 1
231 1
232 1
233 1
234 1
235 1
236 14
237 7
238 1
239 1
240 1
241 1
242 1
243 1
244 28
245 14
246 7
247 1
248 1
249 28
250 14
251 14
252 1
253 1
254 1
255 1
256 1
257 1
258 28
259 14
260 7
261 1
262 1
263 1
264 1
265 1
266 1
267 28
268 14
269 1
270 1
271 28
272 14
273 28
274 1
275 28
276 1
277 28
278 1
279 1
280 1
281 1
282 1
283 1
284 28
285 28
286 1
287 28
288 28
289 7
290 28
291 28
292 1
293 1
294 1
295 28
296 7
297 1
298 1
299 28
300 14
301 1
302 1
303 1
304 1
305 1
306 1
307 28
308 28
309 1
310 1
311 1
312 1
313 1
314 1
315 28
316 28
317 1
318 1
319 1
320 1
321 1
322 1
323 14
324 7
325 28
326 1
327 1
328 1
329 28
330 14
331 1
332 1
333 1
334 1
335 28
336 1
337 1
338 1
339 1
340 28
341 28
342 1
343 28
344 1
345 1
346 1
347 28
348 14
349 1
350 1
351 1
352 28
353 1
354 28
355 28
356 7
357 1
358 1
359 1
360 1
361 28
362 28
363 7
364 1
365 1
366 1
367 28
368 7
369 1
370 1
371 1
372 1
373 1
374 1
375 28
376 28
377 7
378 1
DEPOT_SECTION
1
-1
EOF