SDVRP instances/custom_instances/p02_21_split0.sol
377 -2 1 37 38 342 -5 7 9 4 6 8 13 14 12 146 151 149 150 145 148 147 87 90 89 88 -42 39 43 41 40 60 289 290 293 291 292 271 -45 46 44 78 83 81 79 77 80 76 82 -56 58 59 53 57 55 54 196 197 194 195 198 -62 61 63 71 74 72 75 73 319 321 315 316 317 320 318 323 322 -96 202 199 207 204 206 201 205 200 203 11 10 184 -97 98 99 100 66 65 69 68 67 64 70 16 15 17 352 351 187 188 -111 109 239 237 244 246 247 92 91 249 248 113 114 118 117 -112 107 110 108 238 235 95 93 94 347 348 349 350 346 -120 119 121 3 208 210 213 212 211 209 -130 135 131 136 132 133 134 226 223 224 225 222 -157 158 154 160 152 155 153 159 156 306 309 312 310 307 311 308 313 -164 161 163 162 165 287 288 286 367 371 373 -168 169 170 166 171 167 283 284 285 -175 214 227 234 231 228 230 229 232 233 36 34 35 33 32 263 265 261 264 -176 177 178 174 215 216 337 335 338 336 334 192 193 191 -186 190 221 217 218 219 220 295 296 294 297 365 363 360 361 362 364 -189 185 141 137 138 143 140 144 139 142 86 84 85 250 254 253 251 252 255 256 -242 241 240 236 116 115 274 275 128 126 124 123 125 127 129 122 326 324 325 327 -243 245 339 340 341 304 302 300 301 305 298 299 303 -259 257 258 262 260 23 20 21 24 25 18 19 22 270 -273 272 182 181 183 180 179 359 353 358 354 356 355 357 -276 281 282 280 278 277 279 105 103 102 101 104 106 172 173 368 366 370 369 372 -314 267 266 269 268 376 377 374 375 -328 331 330 332 333 329 48 49 51 52 50 47 26 28 31 29 27 30 345 343 344 0 





OBJ=
2485.415
BEST_KNOWN=
0.000